c is-unsat
p cnf 9 58
-2 -5 -7 0
-6 -2 -9 0
-9 -5 3 0
8 -4 -5 0
7 1 8 0
-9 5 -8 0
-7 -5 -8 0
3 4 -7 0
-5 -4 -9 0
6 3 -1 0
-7 8 -6 0
-6 -8 -4 0
-1 -4 9 0
-9 2 -8 0
-2 -7 -3 0
-1 -9 -7 0
-9 -6 -3 0
8 -9 4 0
-4 3 1 0
-1 -5 -2 0
-5 -6 -4 0
4 -3 -5 0
-2 -1 -3 0
-5 -7 -4 0
1 5 9 0
-3 -5 -7 0
-1 -9 5 0
-8 6 2 0
-7 -4 -1 0
-6 7 -4 0
-2 -9 1 0
-5 3 -9 0
-4 -3 -2 0
8 -1 -6 0
-9 6 -1 0
-4 -7 1 0
-9 7 2 0
-2 -6 7 0
-8 -9 -5 0
1 5 2 0
-7 -1 6 0
-8 -7 -6 0
-8 1 -5 0
-4 -1 -5 0
-1 2 -3 0
6 -1 5 0
-2 4 -6 0
-7 -1 8 0
-5 -6 -8 0
-8 -7 -5 0
-5 9 -1 0
-5 -7 8 0
-1 -5 -7 0
8 1 -4 0
-1 7 2 0
-2 -8 4 0
-3 -6 -4 0
-7 -2 -3 0
